35 40
6 3 1
1 7 2
7 5 2
4 4 1
4 1 1
2 10 1
2 6 1
2 5 1
6 7 1
6 1 1
8 10 1
1 9 1
6 8 1
10 7 1
1 3 1
1 4 1
7 4 1
6 6 2
2 1 1
10 1 1
8 1 2
9 9 1
8 9 1
5 5 1
1 8 1
2 7 1
7 1 1
8 6 1
5 7 2
1 6 1
9 3 1
10 6 1
7 7 1
3 8 1
2 8 1
10 10 
10 10 
10 10 
10 10 
10 10 
10 10 
10 10 
10 10 
10 10 
10 10 
10 10 
10 10 
10 10 
10 10 
10 10 
10 10 
10 10 
10 10 
10 10 
10 10 
10 10 
10 10 
10 10 
10 10 
10 10 
10 10 
10 10 
10 10 
10 10 
10 10 
10 10 
10 10 
10 10 
10 10 
10 10 
10 10 
10 10 
10 10 
10 10 
10 10 
